units real
atom_style full 

read_data relax.data

pair_style reaxff NULL safezone 3.0 mincap 150
pair_coeff * * ffield.reax.CHOFe Si O
fix myqeq all qeq/reaxff 1 0.0 10.0 1.0e-6 reaxff maxiter 400

group grpSi type Si
group grpO type O
variable qSi equal charge(grpSi)/count(grpSi)
variable qO equal charge(grpO)/count(grpO)
variable vq atom q

thermo 200
thermo_style custom step temp etotal press vol v_qSi v_qO

fix myspec all reaxff/species 5 1 5 deform.species element Si O

fix mynvt all nvt temp 300.0 300.0 100
timestep 0.5

run 5000

dump production all custom 1 dump.lammpstrj id type xu yu zu vx vy vz v_vq
dump_modify production format float %.16f

fix mydef all deform 1 x erate 5e-5

run 25000

write_data deform.data nofix
