units real
atom_style full

read_data silica.data

pair_style reaxff NULL safezone 3.0 mincap 150
pair_coeff * * ffield.reax.CHOFe Si O
fix myqeq all qeq/reaxff 1 0.0 10.0 1.0e-6 reaxff maxiter 400

group grpSi type Si
group grpO type O
variable qSi equal charge(grpSi)/count(grpSi)
variable qO equal charge(grpO)/count(grpO)
variable vq atom q

thermo 100
thermo_style custom step temp etotal press vol v_qSi v_qO

fix myspec all reaxff/species 5 1 5 relax.species element Si O

velocity all create 300.0 32028
fix mynpt all npt temp 300.0 300.0 100 aniso 1.0 1.0 1000
timestep 0.5

run 5000

write_data relax.data nofix
